c 
c G(k,n,p) graph
c graph gen seed     : 1235
c number of vertices : 25
c max number of edges: 500
c number of classes  : 2
c edge density       : 0.600000
c edge probability   : 1.200000
c data structure     : dense
c
c           Graph Stats
c number of vertices  : 25
c nonisolated vertices: 25
c number of edges     : 154
c edge density        : 0.513333
c max degree          : 14
c avg degree          : 12.32
c min degree          : 11
p col 25 154
e 1 3
e 1 7
e 1 8
e 1 9
e 1 10
e 1 11
e 1 12
e 1 13
e 1 14
e 1 17
e 1 20
e 1 21
e 1 22
e 1 23
e 2 3
e 2 7
e 2 8
e 2 9
e 2 10
e 2 11
e 2 12
e 2 13
e 2 14
e 2 17
e 2 20
e 2 21
e 2 22
e 2 23
e 3 4
e 3 5
e 3 6
e 3 15
e 3 16
e 3 18
e 3 19
e 3 24
e 3 25
e 4 7
e 4 8
e 4 9
e 4 10
e 4 11
e 4 12
e 4 13
e 4 14
e 4 17
e 4 20
e 4 21
e 4 22
e 4 23
e 5 7
e 5 8
e 5 9
e 5 10
e 5 11
e 5 12
e 5 13
e 5 14
e 5 17
e 5 20
e 5 21
e 5 22
e 5 23
e 6 7
e 6 8
e 6 9
e 6 10
e 6 11
e 6 12
e 6 13
e 6 14
e 6 17
e 6 20
e 6 21
e 6 22
e 6 23
e 7 15
e 7 16
e 7 18
e 7 19
e 7 24
e 7 25
e 8 15
e 8 16
e 8 18
e 8 19
e 8 24
e 8 25
e 9 15
e 9 16
e 9 18
e 9 19
e 9 24
e 9 25
e 10 15
e 10 16
e 10 18
e 10 19
e 10 24
e 10 25
e 11 15
e 11 16
e 11 18
e 11 19
e 11 24
e 11 25
e 12 15
e 12 16
e 12 18
e 12 19
e 12 24
e 12 25
e 13 15
e 13 16
e 13 18
e 13 19
e 13 24
e 13 25
e 14 15
e 14 16
e 14 18
e 14 19
e 14 24
e 14 25
e 15 17
e 15 20
e 15 21
e 15 22
e 15 23
e 16 17
e 16 20
e 16 21
e 16 22
e 16 23
e 17 18
e 17 19
e 17 24
e 17 25
e 18 20
e 18 21
e 18 22
e 18 23
e 19 20
e 19 21
e 19 22
e 19 23
e 20 24
e 20 25
e 21 24
e 21 25
e 22 24
e 22 25
e 23 24
e 23 25
